(set-logic QF_BV)
(set-option :produce-interpolants true)
(set-option :produce-models true)
(declare-fun error () Bool)
(declare-fun main-main.bb () Bool)
(declare-fun main-main.bb72 () Bool)
(declare-fun main-tmp58 () (_ BitVec 32))
(declare-fun main-tmp59 () (_ BitVec 32))
(declare-fun main-x1.0 () (_ BitVec 32))
(declare-fun main-x2.0 () (_ BitVec 32))
(declare-fun main-x3.0 () (_ BitVec 32))
(declare-fun main-x4.0 () (_ BitVec 32))
(declare-fun main-x5.0 () (_ BitVec 32))
(declare-fun main-x6.0 () (_ BitVec 32))
(declare-fun main-x7.0 () (_ BitVec 32))
(declare-fun input-main-tmp104 () Bool)
(declare-fun input-main-tmp116 () Bool)
(declare-fun input-main-tmp73 () Bool)
(declare-fun input-main-tmp75 () Bool)
(declare-fun input-main-tmp83 () Bool)
(declare-fun input-main-tmp95 () Bool)
(declare-fun step () Bool)
(declare-fun input-main-tmp () (_ BitVec 32))
(declare-fun input-main-tmp57 () (_ BitVec 32))
(declare-fun input-main-tmp58 () (_ BitVec 32))
(declare-fun input-main-tmp59 () (_ BitVec 32))
(declare-fun input-main-tmp104_1 () Bool)
(declare-fun input-main-tmp116_1 () Bool)
(declare-fun input-main-tmp73_1 () Bool)
(declare-fun input-main-tmp75_1 () Bool)
(declare-fun input-main-tmp83_1 () Bool)
(declare-fun input-main-tmp95_1 () Bool)
(declare-fun step_1 () Bool)
(declare-fun input-main-tmp_1 () (_ BitVec 32))
(declare-fun input-main-tmp57_1 () (_ BitVec 32))
(declare-fun input-main-tmp58_1 () (_ BitVec 32))
(declare-fun input-main-tmp59_1 () (_ BitVec 32))
(define-fun gate-bb () Bool (or main-main.bb main-main.bb))
(define-fun gate-tmp60 () Bool (= input-main-tmp input-main-tmp58))
(define-fun gate-bb62 () Bool (and gate-bb gate-tmp60))
(define-fun gate-tmp63 () Bool (= input-main-tmp57 input-main-tmp59))
(define-fun gate-bb65 () Bool (and gate-bb62 gate-tmp63))
(define-fun gate-tmp66 () Bool (bvsgt input-main-tmp58 (_ bv0 32)))
(define-fun gate-bb68 () Bool (and gate-bb65 gate-tmp66))
(define-fun gate-tmp69 () Bool (bvsgt input-main-tmp59 (_ bv0 32)))
(define-fun gate-bb71 () Bool (and gate-bb68 gate-tmp69))
(define-fun gate-bb72 () Bool (or main-main.bb72 gate-bb71 main-main.bb72))
(define-fun gate-bb135 () Bool (and gate-bb72 (not input-main-tmp73)))
(define-fun gate-x2.0 () (_ BitVec 32) (ite main-main.bb72 main-x2.0 (_ bv0 32)))
(define-fun gate-x3.0 () (_ BitVec 32) (ite main-main.bb72 main-x3.0 (_ bv0 32)))
(define-fun gate-tmp136 () (_ BitVec 32) (bvadd (ite gate-bb72 gate-x2.0 main-x2.0) (ite gate-bb72 gate-x3.0 main-x3.0)))
(define-fun gate-x4.0 () (_ BitVec 32) (ite main-main.bb72 main-x4.0 (_ bv0 32)))
(define-fun gate-tmp137 () (_ BitVec 32) (bvadd gate-tmp136 (ite gate-bb72 gate-x4.0 main-x4.0)))
(define-fun gate-x7.0 () (_ BitVec 32) (ite main-main.bb72 main-x7.0 input-main-tmp57))
(define-fun gate-tmp138 () (_ BitVec 32) (bvadd gate-tmp137 (ite gate-bb72 gate-x7.0 main-x7.0)))
(define-fun gate-tmp139 () Bool (= gate-tmp138 (ite gate-bb input-main-tmp59 main-tmp59)))
(define-fun gate-x1.0 () (_ BitVec 32) (ite main-main.bb72 main-x1.0 (_ bv0 32)))
(define-fun gate-tmp140 () (_ BitVec 32) (bvadd (ite gate-bb72 gate-x1.0 main-x1.0) (ite gate-bb72 gate-x2.0 main-x2.0)))
(define-fun gate-tmp141 () (_ BitVec 32) (bvadd gate-tmp140 (ite gate-bb72 gate-x4.0 main-x4.0)))
(define-fun gate-x5.0 () (_ BitVec 32) (ite main-main.bb72 main-x5.0 (_ bv0 32)))
(define-fun gate-tmp142 () (_ BitVec 32) (bvadd gate-tmp141 (ite gate-bb72 gate-x5.0 main-x5.0)))
(define-fun gate-x6.0 () (_ BitVec 32) (ite main-main.bb72 main-x6.0 input-main-tmp))
(define-fun gate-tmp143 () (_ BitVec 32) (bvadd gate-tmp142 (ite gate-bb72 gate-x6.0 main-x6.0)))
(define-fun gate-tmp144 () Bool (= gate-tmp143 (ite gate-bb input-main-tmp58 main-tmp58)))
(define-fun gate-tmp145 () Bool (bvsgt (ite gate-bb72 gate-x7.0 main-x7.0) (_ bv4294967295 32)))
(define-fun gate-tmp146 () Bool (bvsgt (ite gate-bb72 gate-x6.0 main-x6.0) (_ bv4294967295 32)))
(define-fun gate-tmp147 () Bool (bvsgt (ite gate-bb72 gate-x5.0 main-x5.0) (_ bv4294967295 32)))
(define-fun gate-tmp148 () Bool (bvsgt (ite gate-bb72 gate-x4.0 main-x4.0) (_ bv4294967295 32)))
(define-fun gate-tmp149 () Bool (bvsgt (ite gate-bb72 gate-x3.0 main-x3.0) (_ bv4294967295 32)))
(define-fun gate-tmp150 () Bool (bvsgt (ite gate-bb72 gate-x2.0 main-x2.0) (_ bv4294967295 32)))
(define-fun gate-tmp151 () Bool (bvsgt (ite gate-bb72 gate-x1.0 main-x1.0) (_ bv4294967295 32)))
(define-fun gate-tmp152 () (_ BitVec 32) (bvadd (ite gate-bb72 gate-x2.0 main-x2.0) (ite gate-bb72 gate-x3.0 main-x3.0)))
(define-fun gate-tmp153 () (_ BitVec 32) (bvadd gate-tmp152 (ite gate-bb72 gate-x4.0 main-x4.0)))
(define-fun gate-tmp154 () (_ BitVec 32) (bvadd gate-tmp153 (ite gate-bb72 gate-x7.0 main-x7.0)))
(define-fun gate-tmp155 () Bool (bvsgt gate-tmp154 (_ bv0 32)))
(define-fun gate-tmp156 () (_ BitVec 32) (bvadd (ite gate-bb72 gate-x1.0 main-x1.0) (ite gate-bb72 gate-x2.0 main-x2.0)))
(define-fun gate-tmp157 () (_ BitVec 32) (bvadd gate-tmp156 (ite gate-bb72 gate-x4.0 main-x4.0)))
(define-fun gate-tmp158 () (_ BitVec 32) (bvadd gate-tmp157 (ite gate-bb72 gate-x5.0 main-x5.0)))
(define-fun gate-tmp159 () (_ BitVec 32) (bvadd gate-tmp158 (ite gate-bb72 gate-x6.0 main-x6.0)))
(define-fun gate-tmp160 () Bool (bvsgt gate-tmp159 (_ bv0 32)))
(define-fun error_1 () Bool (or (not (or (not true) (=> (and (and (and (and (and (and (and (and (and (and gate-bb135 gate-tmp139) gate-tmp144) gate-tmp145) gate-tmp146) gate-tmp147) gate-tmp148) gate-tmp149) gate-tmp150) gate-tmp151) gate-tmp155) gate-tmp160))) (not (or (not true) (=> (and (and (and (and (and (and (and (and (and gate-bb135 gate-tmp139) gate-tmp144) gate-tmp145) gate-tmp146) gate-tmp147) gate-tmp148) gate-tmp149) gate-tmp150) gate-tmp151) gate-tmp155))) (not (or (not true) (=> (and (and (and (and (and (and (and (and gate-bb135 gate-tmp139) gate-tmp144) gate-tmp145) gate-tmp146) gate-tmp147) gate-tmp148) gate-tmp149) gate-tmp150) gate-tmp151))) (not (or (not true) (=> (and (and (and (and (and (and (and gate-bb135 gate-tmp139) gate-tmp144) gate-tmp145) gate-tmp146) gate-tmp147) gate-tmp148) gate-tmp149) gate-tmp150))) (not (or (not true) (=> (and (and (and (and (and (and gate-bb135 gate-tmp139) gate-tmp144) gate-tmp145) gate-tmp146) gate-tmp147) gate-tmp148) gate-tmp149))) (not (or (not true) (=> (and (and (and (and (and gate-bb135 gate-tmp139) gate-tmp144) gate-tmp145) gate-tmp146) gate-tmp147) gate-tmp148))) (not (or (not true) (=> (and (and (and (and gate-bb135 gate-tmp139) gate-tmp144) gate-tmp145) gate-tmp146) gate-tmp147))) (not (or (not true) (=> (and (and (and gate-bb135 gate-tmp139) gate-tmp144) gate-tmp145) gate-tmp146))) (not (or (not true) (=> (and (and gate-bb135 gate-tmp139) gate-tmp144) gate-tmp145))) (not (or (not true) (=> (and gate-bb135 gate-tmp139) gate-tmp144))) (not (or (not true) (=> gate-bb135 gate-tmp139)))))
(define-fun main-main.bb_1 () Bool (ite true false main-main.bb))
(define-fun gate-bb74 () Bool (and gate-bb72 input-main-tmp73))
(define-fun gate-bb76 () Bool (and gate-bb74 input-main-tmp75))
(define-fun gate-tmp77 () Bool (bvsgt (ite gate-bb72 gate-x6.0 main-x6.0) (_ bv0 32)))
(define-fun gate-bb79 () Bool (and gate-bb76 gate-tmp77))
(define-fun gate-bb82 () Bool (and gate-bb74 (not input-main-tmp75)))
(define-fun gate-bb84 () Bool (and gate-bb82 input-main-tmp83))
(define-fun gate-tmp85 () Bool (bvsgt (ite gate-bb72 gate-x1.0 main-x1.0) (_ bv0 32)))
(define-fun gate-bb87 () Bool (and gate-bb84 gate-tmp85))
(define-fun gate-tmp88 () Bool (bvsgt (ite gate-bb72 gate-x7.0 main-x7.0) (_ bv0 32)))
(define-fun gate-bb90 () Bool (and gate-bb87 gate-tmp88))
(define-fun gate-bb94 () Bool (and gate-bb82 (not input-main-tmp83)))
(define-fun gate-bb96 () Bool (and gate-bb94 input-main-tmp95))
(define-fun gate-tmp97 () Bool (bvsgt (ite gate-bb72 gate-x2.0 main-x2.0) (_ bv0 32)))
(define-fun gate-bb99 () Bool (and gate-bb96 gate-tmp97))
(define-fun gate-bb103 () Bool (and gate-bb94 (not input-main-tmp95)))
(define-fun gate-bb105 () Bool (and gate-bb103 input-main-tmp104))
(define-fun gate-tmp106 () Bool (bvsgt (ite gate-bb72 gate-x3.0 main-x3.0) (_ bv0 32)))
(define-fun gate-bb108 () Bool (and gate-bb105 gate-tmp106))
(define-fun gate-tmp109 () Bool (bvsgt (ite gate-bb72 gate-x6.0 main-x6.0) (_ bv0 32)))
(define-fun gate-bb111 () Bool (and gate-bb108 gate-tmp109))
(define-fun gate-bb115 () Bool (and gate-bb103 (not input-main-tmp104)))
(define-fun gate-bb117 () Bool (and gate-bb115 input-main-tmp116))
(define-fun gate-tmp118 () Bool (bvsgt (ite gate-bb72 gate-x4.0 main-x4.0) (_ bv0 32)))
(define-fun gate-bb120 () Bool (and gate-bb117 gate-tmp118))
(define-fun gate-bb124 () Bool (and gate-bb115 (not input-main-tmp116)))
(define-fun gate-tmp125 () Bool (bvsgt (ite gate-bb72 gate-x5.0 main-x5.0) (_ bv0 32)))
(define-fun gate-bb127 () Bool (and gate-bb124 gate-tmp125))
(define-fun gate-bb130 () Bool (or gate-bb120 gate-bb127))
(define-fun gate-bb131 () Bool (or gate-bb111 gate-bb130))
(define-fun gate-bb132 () Bool (or gate-bb99 gate-bb131))
(define-fun gate-bb133 () Bool (or gate-bb90 gate-bb132))
(define-fun gate-bb134 () Bool (or gate-bb79 gate-bb133))
(define-fun main-main.bb72_1 () Bool (ite true gate-bb134 main-main.bb72))
(define-fun main-tmp58_1 () (_ BitVec 32) (ite (and true gate-bb) input-main-tmp58 main-tmp58))
(define-fun main-tmp59_1 () (_ BitVec 32) (ite (and true gate-bb) input-main-tmp59 main-tmp59))
(define-fun gate-tmp91 () (_ BitVec 32) (bvadd (ite gate-bb72 gate-x1.0 main-x1.0) (_ bv4294967295 32)))
(define-fun gate-x1.1 () (_ BitVec 32) (ite gate-bb132 (ite gate-bb72 gate-x1.0 main-x1.0) gate-tmp91))
(define-fun gate-tmp80 () (_ BitVec 32) (bvadd (ite gate-bb72 gate-x1.0 main-x1.0) (_ bv1 32)))
(define-fun gate-x1.2 () (_ BitVec 32) (ite gate-bb133 gate-x1.1 gate-tmp80))
(define-fun main-x1.0_1 () (_ BitVec 32) (ite gate-bb134 gate-x1.2 main-x1.0))
(define-fun gate-tmp100 () (_ BitVec 32) (bvadd (ite gate-bb72 gate-x2.0 main-x2.0) (_ bv4294967295 32)))
(define-fun gate-x2.1 () (_ BitVec 32) (ite gate-bb131 (ite gate-bb72 gate-x2.0 main-x2.0) gate-tmp100))
(define-fun gate-tmp92 () (_ BitVec 32) (bvadd (ite gate-bb72 gate-x2.0 main-x2.0) (_ bv1 32)))
(define-fun gate-x2.2 () (_ BitVec 32) (ite gate-bb132 gate-x2.1 gate-tmp92))
(define-fun gate-x2.3 () (_ BitVec 32) (ite gate-bb133 gate-x2.2 (ite gate-bb72 gate-x2.0 main-x2.0)))
(define-fun main-x2.0_1 () (_ BitVec 32) (ite gate-bb134 gate-x2.3 main-x2.0))
(define-fun gate-tmp112 () (_ BitVec 32) (bvadd (ite gate-bb72 gate-x3.0 main-x3.0) (_ bv4294967295 32)))
(define-fun gate-x3.1 () (_ BitVec 32) (ite gate-bb130 (ite gate-bb72 gate-x3.0 main-x3.0) gate-tmp112))
(define-fun gate-tmp101 () (_ BitVec 32) (bvadd (ite gate-bb72 gate-x3.0 main-x3.0) (_ bv1 32)))
(define-fun gate-x3.2 () (_ BitVec 32) (ite gate-bb131 gate-x3.1 gate-tmp101))
(define-fun gate-x3.3 () (_ BitVec 32) (ite gate-bb132 gate-x3.2 (ite gate-bb72 gate-x3.0 main-x3.0)))
(define-fun gate-x3.4 () (_ BitVec 32) (ite gate-bb133 gate-x3.3 (ite gate-bb72 gate-x3.0 main-x3.0)))
(define-fun main-x3.0_1 () (_ BitVec 32) (ite gate-bb134 gate-x3.4 main-x3.0))
(define-fun gate-tmp121 () (_ BitVec 32) (bvadd (ite gate-bb72 gate-x4.0 main-x4.0) (_ bv4294967295 32)))
(define-fun gate-x4.1 () (_ BitVec 32) (ite gate-bb127 (ite gate-bb72 gate-x4.0 main-x4.0) gate-tmp121))
(define-fun gate-tmp113 () (_ BitVec 32) (bvadd (ite gate-bb72 gate-x4.0 main-x4.0) (_ bv1 32)))
(define-fun gate-x4.2 () (_ BitVec 32) (ite gate-bb130 gate-x4.1 gate-tmp113))
(define-fun gate-x4.3 () (_ BitVec 32) (ite gate-bb131 gate-x4.2 (ite gate-bb72 gate-x4.0 main-x4.0)))
(define-fun gate-x4.4 () (_ BitVec 32) (ite gate-bb132 gate-x4.3 (ite gate-bb72 gate-x4.0 main-x4.0)))
(define-fun gate-x4.5 () (_ BitVec 32) (ite gate-bb133 gate-x4.4 (ite gate-bb72 gate-x4.0 main-x4.0)))
(define-fun main-x4.0_1 () (_ BitVec 32) (ite gate-bb134 gate-x4.5 main-x4.0))
(define-fun gate-tmp128 () (_ BitVec 32) (bvadd (ite gate-bb72 gate-x5.0 main-x5.0) (_ bv4294967295 32)))
(define-fun gate-tmp122 () (_ BitVec 32) (bvadd (ite gate-bb72 gate-x5.0 main-x5.0) (_ bv1 32)))
(define-fun gate-x5.1 () (_ BitVec 32) (ite gate-bb127 gate-tmp128 gate-tmp122))
(define-fun gate-x5.2 () (_ BitVec 32) (ite gate-bb130 gate-x5.1 (ite gate-bb72 gate-x5.0 main-x5.0)))
(define-fun gate-x5.3 () (_ BitVec 32) (ite gate-bb131 gate-x5.2 (ite gate-bb72 gate-x5.0 main-x5.0)))
(define-fun gate-x5.4 () (_ BitVec 32) (ite gate-bb132 gate-x5.3 (ite gate-bb72 gate-x5.0 main-x5.0)))
(define-fun gate-x5.5 () (_ BitVec 32) (ite gate-bb133 gate-x5.4 (ite gate-bb72 gate-x5.0 main-x5.0)))
(define-fun main-x5.0_1 () (_ BitVec 32) (ite gate-bb134 gate-x5.5 main-x5.0))
(define-fun gate-tmp129 () (_ BitVec 32) (bvadd (ite gate-bb72 gate-x6.0 main-x6.0) (_ bv1 32)))
(define-fun gate-x6.1 () (_ BitVec 32) (ite gate-bb127 gate-tmp129 (ite gate-bb72 gate-x6.0 main-x6.0)))
(define-fun gate-tmp114 () (_ BitVec 32) (bvadd (ite gate-bb72 gate-x6.0 main-x6.0) (_ bv4294967295 32)))
(define-fun gate-x6.2 () (_ BitVec 32) (ite gate-bb130 gate-x6.1 gate-tmp114))
(define-fun gate-tmp102 () (_ BitVec 32) (bvadd (ite gate-bb72 gate-x6.0 main-x6.0) (_ bv1 32)))
(define-fun gate-x6.3 () (_ BitVec 32) (ite gate-bb131 gate-x6.2 gate-tmp102))
(define-fun gate-x6.4 () (_ BitVec 32) (ite gate-bb132 gate-x6.3 (ite gate-bb72 gate-x6.0 main-x6.0)))
(define-fun gate-tmp81 () (_ BitVec 32) (bvadd (ite gate-bb72 gate-x6.0 main-x6.0) (_ bv4294967295 32)))
(define-fun gate-x6.5 () (_ BitVec 32) (ite gate-bb133 gate-x6.4 gate-tmp81))
(define-fun main-x6.0_1 () (_ BitVec 32) (ite gate-bb134 gate-x6.5 main-x6.0))
(define-fun gate-tmp123 () (_ BitVec 32) (bvadd (ite gate-bb72 gate-x7.0 main-x7.0) (_ bv1 32)))
(define-fun gate-x7.1 () (_ BitVec 32) (ite gate-bb127 (ite gate-bb72 gate-x7.0 main-x7.0) gate-tmp123))
(define-fun gate-x7.2 () (_ BitVec 32) (ite gate-bb130 gate-x7.1 (ite gate-bb72 gate-x7.0 main-x7.0)))
(define-fun gate-x7.3 () (_ BitVec 32) (ite gate-bb131 gate-x7.2 (ite gate-bb72 gate-x7.0 main-x7.0)))
(define-fun gate-tmp93 () (_ BitVec 32) (bvadd (ite gate-bb72 gate-x7.0 main-x7.0) (_ bv4294967295 32)))
(define-fun gate-x7.4 () (_ BitVec 32) (ite gate-bb132 gate-x7.3 gate-tmp93))
(define-fun gate-x7.5 () (_ BitVec 32) (ite gate-bb133 gate-x7.4 (ite gate-bb72 gate-x7.0 main-x7.0)))
(define-fun main-x7.0_1 () (_ BitVec 32) (ite gate-bb134 gate-x7.5 main-x7.0))
(declare-fun error_2 () Bool)
(declare-fun main-main.bb_2 () Bool)
(declare-fun main-main.bb72_2 () Bool)
(declare-fun main-tmp58_2 () (_ BitVec 32))
(declare-fun main-tmp59_2 () (_ BitVec 32))
(declare-fun main-x1.0_2 () (_ BitVec 32))
(declare-fun main-x2.0_2 () (_ BitVec 32))
(declare-fun main-x3.0_2 () (_ BitVec 32))
(declare-fun main-x4.0_2 () (_ BitVec 32))
(declare-fun main-x5.0_2 () (_ BitVec 32))
(declare-fun main-x6.0_2 () (_ BitVec 32))
(declare-fun main-x7.0_2 () (_ BitVec 32))
(compute-interpolant
  ;A
  (and
    (not error)
    (and (or (and main-main.bb (not main-main.bb72)) (and main-main.bb72 (not main-main.bb)) (and (not main-main.bb72) (not main-main.bb))) step)
    (and (= error_2 error_1) (= main-main.bb_2 main-main.bb_1) (= main-main.bb72_2 main-main.bb72_1) (= main-tmp58_2 main-tmp58_1) (= main-tmp59_2 main-tmp59_1) (= main-x1.0_2 main-x1.0_1) (= main-x2.0_2 main-x2.0_1) (= main-x3.0_2 main-x3.0_1) (= main-x4.0_2 main-x4.0_1) (= main-x5.0_2 main-x5.0_1) (= main-x6.0_2 main-x6.0_1) (= main-x7.0_2 main-x7.0_1))
    (and (= error false) (= main-main.bb true) (= main-main.bb72 false) (= main-tmp58 (_ bv0 32)) (= main-tmp59 (_ bv0 32)) (= main-x1.0 (_ bv0 32)) (= main-x2.0 (_ bv0 32)) (= main-x3.0 (_ bv0 32)) (= main-x4.0 (_ bv0 32)) (= main-x5.0 (_ bv0 32)) (= main-x6.0 (_ bv0 32)) (= main-x7.0 (_ bv0 32)))
    (not (and (= main-main.bb false) (= main-main.bb72 true) (= main-tmp58 (_ bv0 32)) (= main-x1.0 (_ bv0 32)) (= main-x2.0 (_ bv1003421665 32)) (= main-x4.0 (_ bv133099520 32)) (= main-x5.0 (_ bv0 32)) (= main-x6.0 (_ bv0 32))))
  )

  ;B
  (and
    (and (or (and main-main.bb_2 (not main-main.bb72_2)) (and main-main.bb72_2 (not main-main.bb_2)) (and (not main-main.bb72_2) (not main-main.bb_2))) step_1)
    (and (= main-main.bb_2 false) (= main-main.bb72_2 true) (= main-tmp58_2 (_ bv0 32)) (= main-x1.0_2 (_ bv0 32)) (= main-x2.0_2 (_ bv1003421665 32)) (= main-x4.0_2 (_ bv133099520 32)) (= main-x5.0_2 (_ bv0 32)) (= main-x6.0_2 (_ bv0 32)))
  )
  :use-bv2lia
)
